p cnf 28 97
-2 -1 0
-3 -1 0
-3 -2 0
-4 -1 0
-4 -2 0
-4 -3 0
1 2 3 4 0
-6 -5 0
-7 -5 0
-7 -6 0
-8 -5 0
-8 -6 0
-8 -7 0
5 6 7 8 0
-10 -9 0
-11 -9 0
-11 -10 0
-12 -9 0
-12 -10 0
-12 -11 0
9 10 11 12 0
-14 -13 0
-15 -13 0
-15 -14 0
-16 -13 0
-16 -14 0
-16 -15 0
13 14 15 16 0
-18 -17 0
-19 -17 0
-19 -18 0
-20 -17 0
-20 -18 0
-20 -19 0
17 18 19 20 0
-22 -21 0
-23 -21 0
-23 -22 0
-24 -21 0
-24 -22 0
-24 -23 0
21 22 23 24 0
-26 -25 0
-27 -25 0
-27 -26 0
-28 -25 0
-28 -26 0
-28 -27 0
25 26 27 28 0
-1 -5 0
-2 -6 0
-3 -7 0
-4 -8 0
-5 -9 0
-6 -10 0
-7 -11 0
-8 -12 0
-9 -13 0
-10 -14 0
-11 -15 0
-12 -16 0
-13 -17 0
-14 -18 0
-15 -19 0
-16 -20 0
-17 -21 0
-18 -22 0
-19 -23 0
-20 -24 0
-21 -25 0
-22 -26 0
-23 -27 0
-24 -28 0
-1 -25 0
-2 -26 0
-3 -27 0
-4 -28 0
-1 -21 0
-2 -22 0
-3 -23 0
-4 -24 0
-1 -17 0
-2 -18 0
-3 -19 0
-4 -20 0
-9 -25 0
-10 -26 0
-11 -27 0
-12 -28 0
-13 -21 0
-14 -22 0
-15 -23 0
-16 -24 0
-5 -25 0
-6 -26 0
-7 -27 0
-8 -28 0
